Reading model...
...model read.
creating competitive generators file...
...competitive generators recorded.
Loading data...
.. real-time data read.
Compiling instance...
...instance created.
Creating Offer Mitigation (model will solve as dispatch if TRUE)...
NOTE: storage offers will not be mitigated
...storage offer mitigation file created
Converting model to MPEC...
...converted
NOTE: initial MIP solve with only storage competitive to get feasible solution
Solving...

Welcome to IBM(R) ILOG(R) CPLEX(R) Interactive Optimizer 12.9.0.0
  with Simplex, Mixed Integer & Barrier Optimizers
5725-A06 5725-A29 5724-Y48 5724-Y49 5724-Y54 5724-Y55 5655-Y21
Copyright IBM Corp. 1988, 2019.  All Rights Reserved.

Type 'help' for a list of available commands.
Type 'help' followed by a command name for more
information on commands.

CPLEX> Logfile 'cplex.log' closed.
Logfile 'C:\Users\llavin\Desktop\test85\logs\tmpxa64xi7x.cplex.log' open.
CPLEX> New value for parallel optimization mode: -1
CPLEX> New value for mixed integer optimality gap tolerance: 0.001
CPLEX> New value for deterministic time limit in ticks: 100000
CPLEX> Problem 'C:\Users\llavin\Desktop\test85\logs\tmpcqc0su5y.pyomo.lp' read.
Read time = 0.50 sec. (27.86 ticks)
CPLEX> Problem name         : C:\Users\llavin\Desktop\test85\logs\tmpcqc0su5y.pyomo.lp
Objective sense      : Maximize
Variables            :  107779  [Nneg: 1,  Box: 44054,  Free: 8928,
                                 Binary: 54796]
Objective nonzeros   :   18429
Linear constraints   :  246995  [Less: 82866,  Greater: 118424,  Equal: 45705]
  Nonzeros           :  581832
  RHS nonzeros       :  135642

Variables            : Min LB: -5000.000        Max UB: 1000000.       
Objective nonzeros   : Min   : 0.008333333      Max   : 2500.000       
Linear constraints   :
  Nonzeros           : Min   : 0.008333333      Max   : 1000000.       
  RHS nonzeros       : Min   : 0.008333333      Max   : 1000000.       
CPLEX> CPXPARAM_Parallel                                -1
CPXPARAM_DetTimeLimit                            100000
CPXPARAM_MIP_Tolerances_MIPGap                   0.001
Tried aggregator 3 times.
MIP Presolve eliminated 176464 rows and 36949 columns.
MIP Presolve added 7080 rows and 0 columns.
MIP Presolve modified 50838 coefficients.
Aggregator did 25997 substitutions.
Reduced MIP has 51614 rows, 43965 columns, and 141725 nonzeros.
Reduced MIP has 17391 binaries, 0 generals, 0 SOSs, and 0 indicators.
Presolve time = 0.58 sec. (337.38 ticks)
Probing fixed 704 vars, tightened 7778 bounds.
Probing time = 0.39 sec. (14.67 ticks)
Tried aggregator 2 times.
MIP Presolve eliminated 1604 rows and 1417 columns.
MIP Presolve modified 6528 coefficients.
Aggregator did 48 substitutions.
Reduced MIP has 49962 rows, 42500 columns, and 136911 nonzeros.
Reduced MIP has 16687 binaries, 0 generals, 0 SOSs, and 0 indicators.
Presolve time = 0.28 sec. (252.27 ticks)
Probing fixed 0 vars, tightened 103 bounds.
Probing time = 0.55 sec. (15.57 ticks)
Clique table members: 86824.
MIP emphasis: balance optimality and feasibility.
MIP search method: dynamic search.
Parallel mode: opportunistic, using up to 32 threads.
Root relaxation solution time = 1.11 sec. (2014.39 ticks)

        Nodes                                         Cuts/
   Node  Left     Objective  IInf  Best Integer    Best Bound    ItCnt     Gap

      0     0        0.0000   118                      0.0000    10055         
*     0+    0                            0.0000        0.0000             0.00%
      0     0        cutoff              0.0000        0.0000    10055    0.00%
Elapsed time = 4.16 sec. (3715.53 ticks, tree = 0.01 MB, solutions = 1)

Root node processing (before b&c):
  Real time             =    4.19 sec. (3719.21 ticks)
Parallel b&c, 32 threads:
  Real time             =    0.00 sec. (0.00 ticks)
  Sync time (average)   =    0.00 sec.
  Wait time (average)   =    0.00 sec.
                          ------------
Total (root+branch&cut) =    4.19 sec. (3719.21 ticks)

Solution pool: 1 solution saved.

MIP - Integer optimal solution:  Objective =  9.5360519481e-10
Solution time =    4.23 sec.  Iterations = 10055  Nodes = 0
Deterministic time = 3719.52 ticks  (878.49 ticks/sec)

CPLEX> Incumbent solution written to file 'C:\Users\llavin\Desktop\test85\logs\tmp1hp8fr0a.cplex.sol'.
CPLEX> NOTE: no warmstart specified for MIP iteration, default behavior is true
NOTE: resolving with all competitive generators using storage-only solution to warmstart
Solving...

Welcome to IBM(R) ILOG(R) CPLEX(R) Interactive Optimizer 12.9.0.0
  with Simplex, Mixed Integer & Barrier Optimizers
5725-A06 5725-A29 5724-Y48 5724-Y49 5724-Y54 5724-Y55 5655-Y21
Copyright IBM Corp. 1988, 2019.  All Rights Reserved.

Type 'help' for a list of available commands.
Type 'help' followed by a command name for more
information on commands.

CPLEX> Logfile 'cplex.log' closed.
Logfile 'C:\Users\llavin\Desktop\test85\logs\tmpidaf82gl.cplex.log' open.
CPLEX> New value for parallel optimization mode: -1
CPLEX> New value for mixed integer optimality gap tolerance: 0.001
CPLEX> New value for deterministic time limit in ticks: 100000
CPLEX> Problem 'C:\Users\llavin\Desktop\test85\logs\tmpumldk12g.pyomo.lp' read.
Read time = 0.52 sec. (27.91 ticks)
CPLEX> MIP start file 'C:\Users\llavin\Desktop\test85\logs\tmpa1c6mg7u.cplex.mst' read.
CPLEX> Problem name         : C:\Users\llavin\Desktop\test85\logs\tmpumldk12g.pyomo.lp
Objective sense      : Maximize
Variables            :  109219  [Nneg: 1,  Box: 45494,  Free: 8928,
                                 Binary: 54796]
Objective nonzeros   :   19821
Linear constraints   :  246995  [Less: 82866,  Greater: 118424,  Equal: 45705]
  Nonzeros           :  581832
  RHS nonzeros       :  135642

Variables            : Min LB: -5000.000        Max UB: 1000000.       
Objective nonzeros   : Min   : 0.008333333      Max   : 2500.000       
Linear constraints   :
  Nonzeros           : Min   : 0.008333333      Max   : 1000000.       
  RHS nonzeros       : Min   : 0.008333333      Max   : 1000000.       
CPLEX> CPXPARAM_Parallel                                -1
CPXPARAM_DetTimeLimit                            100000
CPXPARAM_MIP_Tolerances_MIPGap                   0.001
1 of 1 MIP starts provided solutions.
MIP start 'm1' defined initial solution with objective 0.0000.
Tried aggregator 3 times.
MIP Presolve eliminated 176464 rows and 38389 columns.
MIP Presolve added 7080 rows and 0 columns.
MIP Presolve modified 50838 coefficients.
Aggregator did 25997 substitutions.
Reduced MIP has 51614 rows, 43965 columns, and 141725 nonzeros.
Reduced MIP has 17391 binaries, 0 generals, 0 SOSs, and 0 indicators.
Presolve time = 0.58 sec. (338.09 ticks)
Probing fixed 704 vars, tightened 7778 bounds.
Probing time = 0.39 sec. (14.67 ticks)
Tried aggregator 2 times.
MIP Presolve eliminated 1604 rows and 1417 columns.
MIP Presolve modified 6528 coefficients.
Aggregator did 48 substitutions.
Reduced MIP has 49962 rows, 42500 columns, and 136911 nonzeros.
Reduced MIP has 16687 binaries, 0 generals, 0 SOSs, and 0 indicators.
Presolve time = 0.26 sec. (252.28 ticks)
Probing fixed 0 vars, tightened 109 bounds.
Probing time = 0.55 sec. (15.66 ticks)
Clique table members: 86679.
MIP emphasis: balance optimality and feasibility.
MIP search method: dynamic search.
Parallel mode: opportunistic, using up to 32 threads.
Root relaxation solution time = 1.19 sec. (2128.68 ticks)

        Nodes                                         Cuts/
   Node  Left     Objective  IInf  Best Integer    Best Bound    ItCnt     Gap

*     0+    0                            0.0000   1.17406e+07              --- 
      0     0    14730.8287   247        0.0000    14730.8287    11214     --- 
*     0+    0                            0.0000    14730.8287              --- 
      0     0    14026.3002   334        0.0000     Cuts: 297    11697     --- 
      0     0    13793.5375   284        0.0000     Cuts: 251    12024     --- 
      0     0    13781.4330   272        0.0000      Cuts: 95    12082     --- 
      0     0    13781.4330   267        0.0000      Cuts: 51    12094     --- 
      0     0    13781.4330   267        0.0000       Cuts: 6    12098     --- 
      0     0    13781.4330   221        0.0000       Cuts: 4    12101     --- 
      0     0    13781.4330   220        0.0000      Cuts: 19    12113     --- 
      0     2    13781.4330   208        0.0000      Cuts: 31    12113     --- 
Elapsed time = 13.97 sec. (7316.83 ticks, tree = 0.02 MB, solutions = 2)
     60    26    13198.4588   184        0.0000    13549.6053    12493     --- 
    233    73    12298.1376   133        0.0000    13549.6053    13340     --- 
    500    56    12327.3875   146        0.0000    13549.6053    12943     --- 
    836    89    10295.7385    94        0.0000    13549.6053    13690     --- 
   1123   579     4075.1559    54        0.0000    13549.6053    27425     --- 
   1382   168     6191.1918    73        0.0000    13549.6053    15174     --- 
   1698   311     3594.0135    53        0.0000    13549.6053    18879     --- 
   2031   540        cutoff              0.0000    13549.6053    26240     --- 
   2290   875      784.3869    47        0.0000    13549.6053    35118     --- 
   3539  1210        9.3950    46        0.0000    13275.0811    43347     --- 
Elapsed time = 32.91 sec. (10423.11 ticks, tree = 11.16 MB, solutions = 2)
   4806  1957        cutoff              0.0000    12946.4187    76478     --- 
   6040  2417        cutoff              0.0000    12751.3270   100323     --- 
   7227  2879      269.0520    59        0.0000    12609.4876   126476     --- 
   8122  3535      579.9393    68        0.0000    12525.7135   165896     --- 
   8445  4027      197.5015    40        0.0000    12525.7135   194960     --- 
*  8460  2900      integral     0        0.0000        0.0000   230988    0.00%

GUB cover cuts applied:  6
Cover cuts applied:  2
Implied bound cuts applied:  10
Flow cuts applied:  229
Mixed integer rounding cuts applied:  76
Lift and project cuts applied:  7
Gomory fractional cuts applied:  55

Root node processing (before b&c):
  Real time             =    8.81 sec. (7160.13 ticks)
Parallel b&c, 32 threads:
  Real time             =   53.95 sec. (12705.91 ticks)
  Sync time (average)   =    1.37 sec.
  Wait time (average)   =    0.00 sec.
                          ------------
Total (root+branch&cut) =   62.77 sec. (19866.04 ticks)

Solution pool: 2 solutions saved.

MIP - Integer optimal solution:  Objective =  4.3544605433e-07
Solution time =   62.81 sec.  Iterations = 230988  Nodes = 8460
Deterministic time = 19866.35 ticks  (316.28 ticks/sec)

CPLEX> Incumbent solution written to file 'C:\Users\llavin\Desktop\test85\logs\tmp964bltjq.cplex.sol'.
CPLEX> Exporting results... 
